Translating instance to solver...

Set parameter TimeLimit to value 28800
Gurobi Optimizer version 11.0.2 build v11.0.2rc0 (linux64 - "Ubuntu 22.04.4 LTS")

CPU model: Intel(R) Xeon(R) Gold 5120 CPU @ 2.20GHz, instruction set [SSE2|AVX|AVX2|AVX512]
Thread count: 28 physical cores, 56 logical processors, using up to 28 threads

Academic license 2463511 - for non-commercial use only - registered to lu___@cefet-rj.br
Optimize a model with 40945 rows, 21383 columns and 96975 nonzeros
Model fingerprint: 0x049f07d1
Variable types: 1 continuous, 21382 integer (21340 binary)
Coefficient statistics:
  Matrix range     [1e+00, 1e+05]
  Objective range  [3e-01, 8e-01]
  Bounds range     [1e+00, 4e+01]
  RHS range        [1e+00, 4e+01]
Presolve removed 32334 rows and 17818 columns
Presolve time: 0.59s
Presolved: 8611 rows, 3565 columns, 25866 nonzeros
Variable types: 0 continuous, 3565 integer (3524 binary)

Root relaxation: objective 6.117820e-01, 164 iterations, 0.01 seconds (0.01 work units)

    Nodes    |    Current Node    |     Objective Bounds      |     Work
 Expl Unexpl |  Obj  Depth IntInf | Incumbent    BestBd   Gap | It/Node Time

     0     0    0.61178    0    4          -    0.61178      -     -    0s
H    0     0                       0.6117820    0.61178  0.00%     -    0s

Explored 1 nodes (1650 simplex iterations) in 0.97 seconds (0.81 work units)
Thread count was 28 (of 56 available processors)

Solution count 1: 0.611782 

Optimal solution found (tolerance 1.00e-04)
Best objective 6.117820000000e-01, best bound 6.117820000000e-01, gap 0.0000%

Solver Wallclock Time (for this epsilon): 0.9740490913391113 s
Python wallclock Time (for this epsilon): 3.962588310241699 s


Total Elapsed Time (since program call): 84.43637895584106 s

Results:

I = 0.611782 mA
C = 11.0 points
C ~= 4.4 km^2

Minimum Epsilon for this instance = 9
Maximum Epsilon for this instance = 98

Current Epsilon = 9


Preprocessing Time (for this epsilon): 0.0067865848541259766 s


Updated solution vectors:
sol_I = [-0.611782]
sol_C = [11.0]
sol_eps = [9]
sol_gap = [0.0]
